% 
% Converted by convert_jobshop2.pl
% 
% original file (orb10) from Google or-tools SVN repository
%   or-tools-read-only/data/jobshop/orb10
%
%
% This data file is to be used with either of these two MiniZinc models:
%    http://www.hakank.org/minizinc/jobshop.mzn
%    http://www.hakank.org/minizinc/jobshop2.mzn
%


 
% +++++++++++++++++++++++++++++
% instance orb10
% +++++++++++++++++++++++++++++
% 10x10 instance from George Steiner (GES2)

num_machines = 10;
num_jobs = 10;
max_time = 99999; 

%
% The times for each job.
%
job_times = array2d(1..num_machines, 1..num_jobs,
[
66,13,93,91,14,70,99,53,86,16,
34,99,62,65,62,64,21,12,9,75,
12,26,64,92,67,28,66,83,38,58,
77,73,82,75,84,19,18,89,8,73,
34,74,48,44,92,40,60,62,22,67,
8,85,58,97,92,89,75,77,95,5,
52,43,5,78,12,62,21,80,60,31,
81,23,23,75,78,56,51,39,53,96,
79,55,88,21,83,93,47,10,63,14,
43,63,83,29,52,98,54,39,33,23,
]);


%
% The order each job must be done.
%
job_order = array2d(1..num_machines, 1..num_jobs,
[
9,8,0,7,6,5,3,2,4,1,
8,9,0,7,5,4,6,2,3,1,
9,8,7,6,4,5,3,2,1,0,
0,1,3,2,6,4,5,7,8,9,
0,1,7,5,4,6,3,2,8,9,
9,8,3,7,5,4,6,2,1,0,
8,9,6,7,5,3,4,2,1,0,
9,8,7,6,4,5,3,2,1,0,
9,8,2,4,5,3,6,7,0,1,
0,1,2,3,4,5,6,7,8,9,
]);
